\ENCODING=ISO-8859-1
\Problem name: inst_10_cut_n12

Maximize
 obj1: 57 x0 + 11 x1 + 67 x2 + 48 x3 + 51 x4 + 89 x5 + 12 x6 + 26 x7 + 78 x8
       + 36 x9 + 13 x10 + 34 x11
Subject To
 c0:     83 x0 + 92 x1 + 30 x2 + 22 x3 + 21 x4 + 68 x5 + 27 x6 + 68 x7 + 91 x8
         + 40 x9 + 68 x10 + 41 x11 + s0 <= 994
 c1:     50 x0 + 64 x1 + 54 x2 + 89 x3 + 43 x4 + 52 x5 + 67 x6 + 6 x7 + 86 x8
         + 37 x9 + 66 x10 + 39 x11 + s1 <= 61
 c2:     7 x0 + 12 x1 + 11 x2 + 53 x3 + 19 x4 + 95 x5 + 88 x6 + 11 x7 + 65 x8
         + 48 x9 + 64 x10 + 28 x11 + s2 <= 531
 c3:     86 x0 + 100 x1 + 48 x2 + 53 x3 + 33 x4 + 36 x5 + 35 x6 + 79 x7 + 82 x8
         + 50 x9 + 95 x10 + 96 x11 + s3 <= 387
 c4:     25 x0 + 56 x1 + 91 x2 + 28 x3 + 13 x4 + 59 x5 + 2 x6 + 42 x7 + 74 x8
         + 97 x9 + 4 x10 + 21 x11 + s4 <= 845
 c5:     63 x0 + 46 x1 + 11 x2 + 65 x3 + 71 x4 + 4 x5 + 51 x6 + 52 x7 + 32 x8
         + 42 x9 + 72 x10 + 20 x11 + s5 <= 905
 c6:     24 x0 + 43 x1 + 40 x2 + 89 x3 + 19 x4 + 37 x5 + 38 x6 + 43 x7 + 75 x8
         + 24 x9 + 86 x10 + 44 x11 + s6 <= 968
 c7:     85 x0 + 8 x1 + 19 x2 + 36 x3 + 90 x4 + 23 x5 + 79 x6 + 69 x7 + 55 x8
         + 84 x9 + 64 x10 + 91 x11 + s7 <= 345
 c8:     29 x0 + 75 x1 + 94 x2 + 81 x3 + 80 x4 + 66 x5 + 9 x6 + 49 x7 + 87 x8
         + 64 x9 + 52 x10 + 73 x11 + s8 <= 120
 c9:     66 x0 + 29 x1 + 77 x2 + 49 x3 + 94 x4 + 8 x5 + 51 x6 + 15 x7 + 44 x8
         + 72 x9 + 39 x10 + 60 x11 + s9 <= 200
 c10:    78 x0 + 16 x1 + 70 x2 + 48 x3 + 89 x4 + 85 x5 + 7 x6 + 87 x7 + 68 x8
         + 91 x9 + 13 x10 + 82 x11 + s10 <= 539
 c11:    88 x0 + 34 x1 + 90 x2 + 98 x3 + 24 x4 + 27 x5 + 85 x6 + 11 x7 + 2 x8
         + 40 x9 + 51 x10 + 66 x11 + s11 <= 187
 cut_1:  67 x0 + 121 x1 + 132 x2 + 147 x3 + 110 x4 + 103 x5 + 61 x6 + 51 x7
         + 150 x8 + 90 x9 + 101 x10 + 100 x11 <= 162
 cut_2:  50 x0 + 64 x1 + 55 x2 + 89 x3 + 43 x4 + 52 x5 + 66 x6 + 6 x7 + 86 x8
         + 37 x9 + 66 x10 + 39 x11 <= 62
 cut_3:  72 x0 + 127 x1 + 137 x2 + 155 x3 + 113 x4 + 108 x5 + 68 x6 + 51 x7
         + 158 x8 + 93 x9 + 108 x10 + 103 x11 <= 167
 cut_4:  64 x0 + 109 x1 + 114 x2 + 134 x3 + 94 x4 + 92 x5 + 64 x6 + 40 x7
         + 136 x8 + 77 x9 + 94 x10 + 85 x11 <= 138
 cut_5:  33 x0 + 79 x1 + 97 x2 + 87 x3 + 82 x4 + 69 x5 + 14 x6 + 48 x7 + 93 x8
         + 66 x9 + 56 x10 + 75 x11 <= 123
 cut_6:  37 x0 + 81 x1 + 97 x2 + 92 x3 + 81 x4 + 71 x5 + 22 x6 + 45 x7 + 97 x8
         + 66 x9 + 61 x10 + 74 x11 <= 122
 cut_7:  55 x0 + 99 x1 + 108 x2 + 120 x3 + 89 x4 + 84 x5 + 50 x6 + 41 x7
         + 123 x8 + 73 x9 + 83 x10 + 81 x11 <= 132
 cut_8:  36 x0 + 52 x1 + 49 x2 + 68 x3 + 39 x4 + 43 x5 + 43 x6 + 11 x7 + 67 x8
         + 33 x9 + 49 x10 + 36 x11 <= 57
 cut_9:  30 x0 + 75 x1 + 94 x2 + 82 x3 + 79 x4 + 66 x5 + 10 x6 + 48 x7 + 88 x8
         + 64 x9 + 53 x10 + 72 x11 <= 119
 cut_10: 63 x0 + 115 x1 + 125 x2 + 138 x3 + 104 x4 + 98 x5 + 57 x6 + 48 x7
         + 142 x8 + 85 x9 + 95 x10 + 94 x11 <= 153
 cut_11: 22 x0 + 36 x1 + 38 x2 + 45 x3 + 31 x4 + 31 x5 + 22 x6 + 12 x7 + 46 x8
         + 25 x9 + 32 x10 + 28 x11 <= 46
 cut_12: 12 x0 + 18 x1 + 18 x2 + 23 x3 + 14 x4 + 15 x5 + 13 x6 + 5 x7 + 23 x8
         + 12 x9 + 16 x10 + 13 x11 <= 21
Bounds
 0 <= x0 <= 1
 0 <= x1 <= 1
 0 <= x2 <= 1
 0 <= x3 <= 1
 0 <= x4 <= 1
 0 <= x5 <= 1
 0 <= x6 <= 1
 0 <= x7 <= 1
 0 <= x8 <= 1
 0 <= x9 <= 1
 0 <= x10 <= 1
 0 <= x11 <= 1
End
